NAME: test1738
TYPE: TSP
DIMENSION: 11
EDGE_WEIGHT_TYPE: EUC_2D
NODE_COORD_SECTION
1 64.93104851742241 6.498743611200231
2 34.91042822800191 31.13298659961804
3 49.92516643408159 99.85361414091498
4 15.880035070458698 24.37711410436234
5 56.11853822807856 9.576682982828755
6 63.356885574270194 17.366559725993934
7 18.83484964586929 82.05749323567059
8 34.52579358213812 66.62874154542826
9 49.61938386857718 5.78971054619214
10 74.86954552021926 45.80685329203072
11 41.203664715272915 57.934203707597746
EOF
